220	8 1
30 35 30 35 30 35 30 35
30 23 41 59
0.01 600
2  3 1 280 3 280 5 280 5 2 500 4 500 6 500 7 500 8 500
2  3 1 280 3 280 5 280 5 2 500 4 500 6 500 7 500 8 500
2  3 1 280 3 280 5 280 5 2 500 4 500 6 500 7 500 8 500
2  3 1 280 3 280 5 280 5 2 500 4 500 6 500 7 500 8 500
2  3 1 280 3 280 5 280 5 2 500 4 500 6 500 7 500 8 500
2  3 1 280 3 280 5 280 5 2 500 4 500 6 500 7 500 8 500
2  3 1 280 3 280 5 280 5 2 500 4 500 6 500 7 500 8 500
2  3 1 280 3 280 5 280 5 2 500 4 500 6 500 7 500 8 500
2  3 1 280 3 280 5 280 5 2 500 4 500 6 500 7 500 8 500
2  3 1 280 3 280 5 280 5 2 500 4 500 6 500 7 500 8 500
2  3 1 280 3 280 5 280 5 2 500 4 500 6 500 7 500 8 500
2  3 1 280 3 280 5 280 5 2 500 4 500 6 500 7 500 8 500
2  3 1 280 3 280 5 280 5 2 500 4 500 6 500 7 500 8 500
2  3 1 280 3 280 5 280 5 2 500 4 500 6 500 7 500 8 500
2  3 1 280 3 280 5 280 5 2 500 4 500 6 500 7 500 8 500
2  3 1 280 3 280 5 280 5 2 500 4 500 6 500 7 500 8 500
2  3 1 280 3 280 5 280 5 2 500 4 500 6 500 7 500 8 500
2  3 1 280 3 280 5 280 5 2 500 4 500 6 500 7 500 8 500
2  3 1 280 3 280 5 280 5 2 500 4 500 6 500 7 500 8 500
2  3 1 280 3 280 5 280 5 2 500 4 500 6 500 7 500 8 500
2  3 1 280 3 280 5 280 5 2 500 4 500 6 500 7 500 8 500
2  3 1 280 3 280 5 280 5 2 500 4 500 6 500 7 500 8 500
2  3 1 280 3 280 5 280 5 2 500 4 500 6 500 7 500 8 500
2  3 1 280 3 280 5 280 5 2 500 4 500 6 500 7 500 8 500
2  3 1 280 3 280 5 280 5 2 500 4 500 6 500 7 500 8 500
2  3 1 280 3 280 5 280 5 2 500 4 500 6 500 7 500 8 500
2  3 1 280 3 280 5 280 5 2 500 4 500 6 500 7 500 8 500
2  3 1 280 3 280 5 280 5 2 500 4 500 6 500 7 500 8 500
2  3 1 280 3 280 5 280 5 2 500 4 500 6 500 7 500 8 500
2  3 1 280 3 280 5 280 5 2 500 4 500 6 500 7 500 8 500
2  3 1 280 3 280 5 280 5 2 500 4 500 6 500 7 500 8 500
2  3 1 280 3 280 5 280 5 2 500 4 500 6 500 7 500 8 500
2  3 1 280 3 280 5 280 5 2 500 4 500 6 500 7 500 8 500
2  3 1 280 3 280 5 280 5 2 500 4 500 6 500 7 500 8 500
2  3 1 280 3 280 5 280 5 2 500 4 500 6 500 7 500 8 500
2  3 1 280 3 280 5 280 5 2 500 4 500 6 500 7 500 8 500
2  3 1 280 3 280 5 280 5 2 500 4 500 6 500 7 500 8 500
2  3 1 280 3 280 5 280 5 2 500 4 500 6 500 7 500 8 500
2  3 1 280 3 280 5 280 5 2 500 4 500 6 500 7 500 8 500
2  3 1 280 3 280 5 280 5 2 500 4 500 6 500 7 500 8 500
2  3 1 280 3 280 5 280 5 2 500 4 500 6 500 7 500 8 500
2  3 1 280 3 280 5 280 5 2 500 4 500 6 500 7 500 8 500
2  3 1 280 3 280 5 280 5 2 500 4 500 6 500 7 500 8 500
2  3 1 280 3 280 5 280 5 2 500 4 500 6 500 7 500 8 500
2  3 1 280 3 280 5 280 5 2 500 4 500 6 500 7 500 8 500
2  3 1 280 3 280 5 280 5 2 500 4 500 6 500 7 500 8 500
2  3 1 280 3 280 5 280 5 2 500 4 500 6 500 7 500 8 500
2  3 1 280 3 280 5 280 5 2 500 4 500 6 500 7 500 8 500
2  3 1 280 3 280 5 280 5 2 500 4 500 6 500 7 500 8 500
2  3 1 280 3 280 5 280 5 2 500 4 500 6 500 7 500 8 500
2  3 1 280 3 280 5 280 5 2 500 4 500 6 500 7 500 8 500
2  3 1 280 3 280 5 280 5 2 500 4 500 6 500 7 500 8 500
2  3 1 280 3 280 5 280 5 2 500 4 500 6 500 7 500 8 500
2  3 1 280 3 280 5 280 5 2 500 4 500 6 500 7 500 8 500
2  3 1 280 3 280 5 280 5 2 500 4 500 6 500 7 500 8 500
2  3 1 280 3 280 5 280 5 2 500 4 500 6 500 7 500 8 500
2  3 1 280 3 280 5 280 5 2 500 4 500 6 500 7 500 8 500
2  3 1 280 3 280 5 280 5 2 500 4 500 6 500 7 500 8 500
2  3 1 280 3 280 5 280 5 2 500 4 500 6 500 7 500 8 500
2  3 1 280 3 280 5 280 5 2 500 4 500 6 500 7 500 8 500
2  3 1 280 3 280 5 280 5 2 500 4 500 6 500 7 500 8 500
2  3 1 280 3 280 5 280 5 2 500 4 500 6 500 7 500 8 500
2  3 1 280 3 280 5 280 5 2 500 4 500 6 500 7 500 8 500
2  3 1 280 3 280 5 280 5 2 500 4 500 6 500 7 500 8 500
2  3 1 280 3 280 5 280 5 2 500 4 500 6 500 7 500 8 500
2  3 1 280 3 280 5 280 5 2 500 4 500 6 500 7 500 8 500
2  3 1 280 3 280 5 280 5 2 500 4 500 6 500 7 500 8 500
2  3 1 280 3 280 5 280 5 2 500 4 500 6 500 7 500 8 500
2  3 1 280 3 280 5 280 5 2 500 4 500 6 500 7 500 8 500
2  3 1 280 3 280 5 280 5 2 500 4 500 6 500 7 500 8 500
2  3 1 280 3 280 5 280 5 2 500 4 500 6 500 7 500 8 500
2  3 1 280 3 280 5 280 5 2 500 4 500 6 500 7 500 8 500
2  3 1 280 3 280 5 280 5 2 500 4 500 6 500 7 500 8 500
2  3 1 280 3 280 5 280 5 2 500 4 500 6 500 7 500 8 500
2  3 1 280 3 280 5 280 5 2 500 4 500 6 500 7 500 8 500
2  3 1 280 3 280 5 280 5 2 500 4 500 6 500 7 500 8 500
2  3 1 280 3 280 5 280 5 2 500 4 500 6 500 7 500 8 500
2  3 1 280 3 280 5 280 5 2 500 4 500 6 500 7 500 8 500
2  3 1 280 3 280 5 280 5 2 500 4 500 6 500 7 500 8 500
2  3 1 280 3 280 5 280 5 2 500 4 500 6 500 7 500 8 500
2  3 1 280 3 280 5 280 5 2 500 4 500 6 500 7 500 8 500
2  3 1 280 3 280 5 280 5 2 500 4 500 6 500 7 500 8 500
2  3 1 280 3 280 5 280 5 2 500 4 500 6 500 7 500 8 500
2  3 1 280 3 280 5 280 5 2 500 4 500 6 500 7 500 8 500
2  3 1 280 3 280 5 280 5 2 500 4 500 6 500 7 500 8 500
2  3 1 280 3 280 5 280 5 2 500 4 500 6 500 7 500 8 500
2  3 1 280 3 280 5 280 5 2 500 4 500 6 500 7 500 8 500
2  3 1 280 3 280 5 280 5 2 500 4 500 6 500 7 500 8 500
2  3 1 280 3 280 5 280 5 2 500 4 500 6 500 7 500 8 500
2  3 1 280 3 280 5 280 5 2 500 4 500 6 500 7 500 8 500
2  3 1 280 3 280 5 280 5 2 500 4 500 6 500 7 500 8 500
2  3 1 280 3 280 5 280 5 2 500 4 500 6 500 7 500 8 500
2  3 1 280 3 280 5 280 5 2 500 4 500 6 500 7 500 8 500
2  3 1 280 3 280 5 280 5 2 500 4 500 6 500 7 500 8 500
2  3 1 280 3 280 5 280 5 2 500 4 500 6 500 7 500 8 500
2  3 1 280 3 280 5 280 5 2 500 4 500 6 500 7 500 8 500
2  3 1 280 3 280 5 280 5 2 500 4 500 6 500 7 500 8 500
2  3 1 280 3 280 5 280 5 2 500 4 500 6 500 7 500 8 500
2  3 1 280 3 280 5 280 5 2 500 4 500 6 500 7 500 8 500
2  3 1 280 3 280 5 280 5 2 500 4 500 6 500 7 500 8 500
2  3 1 280 3 280 5 280 5 2 500 4 500 6 500 7 500 8 500
2  3 1 280 3 280 5 280 5 2 500 4 500 6 500 7 500 8 500
2  3 1 280 3 280 5 280 5 2 500 4 500 6 500 7 500 8 500
2  3 1 280 3 280 5 280 5 2 500 4 500 6 500 7 500 8 500
2  3 1 280 3 280 5 280 5 2 500 4 500 6 500 7 500 8 500
2  3 1 280 3 280 5 280 5 2 500 4 500 6 500 7 500 8 500
2  3 1 280 3 280 5 280 5 2 500 4 500 6 500 7 500 8 500
2  3 1 280 3 280 5 280 5 2 500 4 500 6 500 7 500 8 500
2  3 1 280 3 280 5 280 5 2 500 4 500 6 500 7 500 8 500
2  3 1 280 3 280 5 280 5 2 500 4 500 6 500 7 500 8 500
2  3 1 280 3 280 5 280 5 2 500 4 500 6 500 7 500 8 500
2  3 1 280 3 280 5 280 5 2 500 4 500 6 500 7 500 8 500
2  3 1 280 3 280 5 280 5 2 500 4 500 6 500 7 500 8 500
2  3 1 280 3 280 5 280 5 2 500 4 500 6 500 7 500 8 500
2  3 1 280 3 280 5 280 5 2 500 4 500 6 500 7 500 8 500
2  3 1 280 3 280 5 280 5 2 500 4 500 6 500 7 500 8 500
2  3 1 280 3 280 5 280 5 2 500 4 500 6 500 7 500 8 500
2  3 1 280 3 280 5 280 5 2 500 4 500 6 500 7 500 8 500
2  3 1 280 3 280 5 280 5 2 500 4 500 6 500 7 500 8 500
2  3 1 280 3 280 5 280 5 2 500 4 500 6 500 7 500 8 500
2  3 1 280 3 280 5 280 5 2 500 4 500 6 500 7 500 8 500
2  3 1 280 3 280 5 280 5 2 500 4 500 6 500 7 500 8 500
2  3 1 280 3 280 5 280 5 2 500 4 500 6 500 7 500 8 500
2  3 1 280 3 280 5 280 5 2 500 4 500 6 500 7 500 8 500
2  3 1 280 3 280 5 280 5 2 500 4 500 6 500 7 500 8 500
2  3 1 280 3 280 5 280 5 2 500 4 500 6 500 7 500 8 500
2  3 1 280 3 280 5 280 5 2 500 4 500 6 500 7 500 8 500
2  3 1 280 3 280 5 280 5 2 500 4 500 6 500 7 500 8 500
2  3 1 280 3 280 5 280 5 2 500 4 500 6 500 7 500 8 500
2  3 1 280 3 280 5 280 5 2 500 4 500 6 500 7 500 8 500
2  3 1 280 3 280 5 280 5 2 500 4 500 6 500 7 500 8 500
2  3 1 280 3 280 5 280 5 2 500 4 500 6 500 7 500 8 500
2  3 1 280 3 280 5 280 5 2 500 4 500 6 500 7 500 8 500
2  3 1 280 3 280 5 280 5 2 500 4 500 6 500 7 500 8 500
2  3 1 280 3 280 5 280 5 2 500 4 500 6 500 7 500 8 500
2  3 1 280 3 280 5 280 5 2 500 4 500 6 500 7 500 8 500
2  3 1 280 3 280 5 280 5 2 500 4 500 6 500 7 500 8 500
2  3 1 280 3 280 5 280 5 2 500 4 500 6 500 7 500 8 500
2  3 1 280 3 280 5 280 5 2 500 4 500 6 500 7 500 8 500
2  3 1 280 3 280 5 280 5 2 500 4 500 6 500 7 500 8 500
2  3 1 280 3 280 5 280 5 2 500 4 500 6 500 7 500 8 500
2  3 1 280 3 280 5 280 5 2 500 4 500 6 500 7 500 8 500
2  3 1 280 3 280 5 280 5 2 500 4 500 6 500 7 500 8 500
2  3 1 280 3 280 5 280 5 2 500 4 500 6 500 7 500 8 500
2  3 1 280 3 280 5 280 5 2 500 4 500 6 500 7 500 8 500
2  3 1 280 3 280 5 280 5 2 500 4 500 6 500 7 500 8 500
2  3 1 280 3 280 5 280 5 2 500 4 500 6 500 7 500 8 500
2  3 1 280 3 280 5 280 5 2 500 4 500 6 500 7 500 8 500
2  3 1 280 3 280 5 280 5 2 500 4 500 6 500 7 500 8 500
2  3 1 280 3 280 5 280 5 2 500 4 500 6 500 7 500 8 500
2  3 1 280 3 280 5 280 5 2 500 4 500 6 500 7 500 8 500
2  3 1 280 3 280 5 280 5 2 500 4 500 6 500 7 500 8 500
2  3 1 280 3 280 5 280 5 2 500 4 500 6 500 7 500 8 500
2  3 1 280 3 280 5 280 5 2 500 4 500 6 500 7 500 8 500
2  3 1 280 3 280 5 280 5 2 500 4 500 6 500 7 500 8 500
2  3 1 280 3 280 5 280 5 2 500 4 500 6 500 7 500 8 500
2  3 1 280 3 280 5 280 5 2 500 4 500 6 500 7 500 8 500
2  3 1 280 3 280 5 280 5 2 500 4 500 6 500 7 500 8 500
2  3 1 280 3 280 5 280 5 2 500 4 500 6 500 7 500 8 500
2  3 1 280 3 280 5 280 5 2 500 4 500 6 500 7 500 8 500
2  3 1 280 3 280 5 280 5 2 500 4 500 6 500 7 500 8 500
2  3 1 280 3 280 5 280 5 2 500 4 500 6 500 7 500 8 500
2  3 1 280 3 280 5 280 5 2 500 4 500 6 500 7 500 8 500
2  3 1 280 3 280 5 280 5 2 500 4 500 6 500 7 500 8 500
2  3 1 280 3 280 5 280 5 2 500 4 500 6 500 7 500 8 500
2  3 1 280 3 280 5 280 5 2 500 4 500 6 500 7 500 8 500
2  3 1 280 3 280 5 280 5 2 500 4 500 6 500 7 500 8 500
2  3 1 280 3 280 5 280 5 2 500 4 500 6 500 7 500 8 500
2  3 1 280 3 280 5 280 5 2 500 4 500 6 500 7 500 8 500
2  3 1 280 3 280 5 280 5 2 500 4 500 6 500 7 500 8 500
2  3 1 280 3 280 5 280 5 2 500 4 500 6 500 7 500 8 500
2  3 1 280 3 280 5 280 5 2 500 4 500 6 500 7 500 8 500
2  3 1 280 3 280 5 280 5 2 500 4 500 6 500 7 500 8 500
2  3 1 280 3 280 5 280 5 2 500 4 500 6 500 7 500 8 500
2  3 1 280 3 280 5 280 5 2 500 4 500 6 500 7 500 8 500
2  3 1 280 3 280 5 280 5 2 500 4 500 6 500 7 500 8 500
2  3 1 280 3 280 5 280 5 2 500 4 500 6 500 7 500 8 500
2  3 1 280 3 280 5 280 5 2 500 4 500 6 500 7 500 8 500
2  3 1 280 3 280 5 280 5 2 500 4 500 6 500 7 500 8 500
2  3 1 280 3 280 5 280 5 2 500 4 500 6 500 7 500 8 500
2  3 1 280 3 280 5 280 5 2 500 4 500 6 500 7 500 8 500
2  3 1 280 3 280 5 280 5 2 500 4 500 6 500 7 500 8 500
2  3 1 280 3 280 5 280 5 2 500 4 500 6 500 7 500 8 500
2  3 1 280 3 280 5 280 5 2 500 4 500 6 500 7 500 8 500
2  3 1 280 3 280 5 280 5 2 500 4 500 6 500 7 500 8 500
2  3 1 280 3 280 5 280 5 2 500 4 500 6 500 7 500 8 500
2  3 1 280 3 280 5 280 5 2 500 4 500 6 500 7 500 8 500
2  3 1 280 3 280 5 280 5 2 500 4 500 6 500 7 500 8 500
2  3 1 280 3 280 5 280 5 2 500 4 500 6 500 7 500 8 500
2  3 1 280 3 280 5 280 5 2 500 4 500 6 500 7 500 8 500
2  3 1 280 3 280 5 280 5 2 500 4 500 6 500 7 500 8 500
2  3 1 280 3 280 5 280 5 2 500 4 500 6 500 7 500 8 500
2  3 1 280 3 280 5 280 5 2 500 4 500 6 500 7 500 8 500
2  3 1 280 3 280 5 280 5 2 500 4 500 6 500 7 500 8 500
2  3 1 280 3 280 5 280 5 2 500 4 500 6 500 7 500 8 500
2  3 1 280 3 280 5 280 5 2 500 4 500 6 500 7 500 8 500
2  3 1 280 3 280 5 280 5 2 500 4 500 6 500 7 500 8 500
2  3 1 280 3 280 5 280 5 2 500 4 500 6 500 7 500 8 500
2  3 1 280 3 280 5 280 5 2 500 4 500 6 500 7 500 8 500
2  3 1 280 3 280 5 280 5 2 500 4 500 6 500 7 500 8 500
2  3 1 280 3 280 5 280 5 2 500 4 500 6 500 7 500 8 500
2  3 1 280 3 280 5 280 5 2 500 4 500 6 500 7 500 8 500
2  3 1 280 3 280 5 280 5 2 500 4 500 6 500 7 500 8 500
2  3 1 280 3 280 5 280 5 2 500 4 500 6 500 7 500 8 500
2  3 1 280 3 280 5 280 5 2 500 4 500 6 500 7 500 8 500
2  3 1 280 3 280 5 280 5 2 500 4 500 6 500 7 500 8 500
2  3 1 280 3 280 5 280 5 2 500 4 500 6 500 7 500 8 500
2  3 1 280 3 280 5 280 5 2 500 4 500 6 500 7 500 8 500
2  3 1 280 3 280 5 280 5 2 500 4 500 6 500 7 500 8 500
2  3 1 280 3 280 5 280 5 2 500 4 500 6 500 7 500 8 500